
Gurobi 7.5.2 (win64, Python) logging started 02/25/18 14:59:01

Academic license - for non-commercial use only

Gurobi 7.5.2 (win64, Python) logging started 02/27/18 11:43:54

Academic license - for non-commercial use only

Gurobi 7.5.2 (win64, Python) logging started 02/27/18 11:53:07

Academic license - for non-commercial use only

Gurobi 7.5.2 (win64, Python) logging started 02/27/18 17:08:44

Academic license - for non-commercial use only

Gurobi 7.5.2 (win64, Python) logging started 02/27/18 17:43:04

Academic license - for non-commercial use only

Gurobi 7.5.2 (win64, Python) logging started 02/27/18 17:43:12

Academic license - for non-commercial use only

Gurobi 7.5.2 (win64, Python) logging started 02/27/18 17:43:12

Academic license - for non-commercial use only

Gurobi 7.5.2 (win64, Python) logging started 02/27/18 17:43:19

Academic license - for non-commercial use only

Gurobi 7.5.2 (win64, Python) logging started 02/27/18 17:43:20

Academic license - for non-commercial use only

Gurobi 7.5.2 (win64, Python) logging started 02/27/18 17:43:20

Academic license - for non-commercial use only

Gurobi 7.5.2 (win64, Python) logging started 02/27/18 17:43:20

Academic license - for non-commercial use only

Gurobi 7.5.2 (win64, Python) logging started 02/27/18 17:43:20

Academic license - for non-commercial use only

Gurobi 7.5.2 (win64, Python) logging started 02/27/18 17:43:20

Academic license - for non-commercial use only

Gurobi 7.5.2 (win64, Python) logging started 02/27/18 17:43:22

Academic license - for non-commercial use only

Gurobi 7.5.2 (win64, Python) logging started 02/27/18 17:43:22

Academic license - for non-commercial use only

Gurobi 7.5.2 (win64, Python) logging started 02/27/18 17:43:22

Academic license - for non-commercial use only

Gurobi 7.5.2 (win64, Python) logging started 02/27/18 17:47:32

Academic license - for non-commercial use only

Gurobi 7.5.2 (win64, Python) logging started 02/27/18 18:33:41

Academic license - for non-commercial use only

Gurobi 7.5.2 (win64, Python) logging started 02/27/18 19:22:47

Academic license - for non-commercial use only

Gurobi 7.5.2 (win64, Python) logging started 02/27/18 22:17:55

Academic license - for non-commercial use only

Gurobi 7.5.2 (win64, Python) logging started 02/27/18 23:34:05

Academic license - for non-commercial use only

Gurobi 7.5.2 (win64, Python) logging started 02/28/18 23:40:54

Academic license - for non-commercial use only

Gurobi 7.5.2 (win64, Python) logging started 02/28/18 23:44:40

Academic license - for non-commercial use only

Gurobi 7.5.2 (win64, Python) logging started 03/04/18 11:23:32

Academic license - for non-commercial use only

Gurobi 7.5.2 (win64, Python) logging started 03/05/18 20:36:08

Academic license - for non-commercial use only

Gurobi 7.5.2 (win64, Python) logging started 03/09/18 00:10:55

Academic license - for non-commercial use only
